%mem=400MW
%nproc=7
#p Temperature=298.15 opt freq UB3LYP/aug-cc-pVDZ

1,2-(CH3)2-C2H5-N2+-UB3LYP-aug-cc-pVDZ-Singlet

1  1
  C   -1.146215   -0.025042   -0.084918
  N   2.194786   0.060718   -0.009645
  N   3.377659   -0.040910   0.040871
  C   -1.149075   -0.264482   1.476557
  H   -1.581448   0.759251   2.067660
  H   -1.841224   -1.072668   1.662901
  H   -0.048831   -0.512720   1.766792
  C   -1.039353   -1.202269   -0.867278
  H   -2.150672   -1.255547   -1.247695
  H   -0.474643   -0.941275   -1.718624
  H   -0.860116   -2.027593   -0.431642
  C   -1.251937   1.385973   -0.602587
  H   -2.141377   1.798694   -0.104441
  H   -0.381019   1.812502   -0.220382
  H   -1.229927   1.265002   -1.634636

nprocshared=7
