%mem=400MW
%nproc=7
#p Temperature=298.15 opt freq UB3LYP/aug-cc-pVDZ

1,2-(CH3)2-C2H5-N2+-UB3LYP-aug-cc-pVDZ-Triplet

1  3
  C   0.335923   -0.041781   -0.058463
  N   -1.148717   0.038644   0.083331
  N   -2.400932   -0.067172   0.068079
  C   0.825378   -1.102446   -0.916953
  H   0.457425   -0.830733   -1.899148
  H   1.970327   -1.074294   -1.071147
  H   0.419804   -1.999012   -0.627041
  C   0.871843   -0.279347   1.374897
  H   1.963821   -0.297654   1.513970
  H   0.375482   0.524472   2.084554
  H   0.536562   -1.237320   1.801141
  C   0.832077   1.402921   -0.526075
  H   1.838195   1.474220   -0.505101
  H   0.384980   1.652487   -1.489963
  H   0.511067   2.145789   0.283865

nprocshared=7
