%mem=400MW
%nproc=7
#p Temperature=298.15 opt freq RB3LYP/aug-cc-pVDZ

1,2-(CH3)2-C2H5-N2+-RB3LYP-aug-cc-pVDZ-Singlet

1  1
  C   1.128049   0.067567   -0.087040
  N   -2.140755   0.006893   -0.081277
  N   -3.093284   -0.000502   0.086616
  C   1.078552   1.410566   -0.605197
  H   0.646838   2.106979   0.160673
  H   2.236496   1.593924   -0.542022
  H   0.625286   1.531200   -1.608098
  C   1.026012   -1.066673   -0.843131
  H   2.112434   -1.277335   -1.086815
  H   0.539312   -2.016572   -0.439947
  H   0.689219   -0.950722   -1.948371
  C   1.171012   -0.274929   1.421507
  H   2.148260   -0.331963   1.769763
  H   0.695426   0.656031   1.969330
  H   0.682526   -1.155736   1.751812

nprocshared=7
