%chk=1,2,4-Triazine-6-UB3LYP-aug-cc-pVDZ-Duplet.chk
%mem=400MW
%nproc=7
#p Temperature=298.15 opt freq UB3LYP/aug-cc-pVDZ

1,2,4-Triazine-6-UB3LYP-aug-cc-pVDZ-Duplet

0 2
C           0.04280         0.83030         0.00700
C          -0.64710         1.70110         0.86750
H          -0.13470         2.29570         1.59470
N          -0.54910         0.01550        -0.97270
N          -2.02890         1.75070         0.72590
N          -1.93230         0.08680        -1.08920
C          -2.63870         0.94750        -0.24310
H          -3.70400         0.93110        -0.34230


nprocshared=7
