%chk=1,2,4-Triazine-6-N2-UB3LYP-aug-cc-pVDZ-Duplet.chk
%mem=400MW
%nproc=7
#p Temperature=298.15 opt freq UB3LYP/aug-cc-pVDZ 

1,2,4-Triazine-6-N2-UB3LYP-aug-cc-pVDZ-Duplet

0  2
  C   0.385416   0.012387   0.130938
  C   -0.068842   1.070788   -0.118134
  N   1.966600   -0.025862   -0.142351
  N   3.128036   0.104764   -0.172082
  H   0.178576   2.079028   -0.095185
  N   -0.286352   -1.088455   0.041624
  N   -1.496971   1.077531   -0.094747
  N   -1.463395   -1.340337   0.087757
  C   -2.175774   -0.082551   0.161429
  H   -3.288370   0.087005   0.190526

nprocshared=7
