%chk=1,3,5-(CH3)3-Pyrazole-4-N2+-RB3LYP-aug-cc-pVDZ-Singlet.chk
%mem=400MW
%nproc=7
#p Temperature=298.15 opt freq RB3LYP/aug-cc-pVDZ

1,3,5-(CH3)3-Pyrazole-4-N2+-RB3LYP-aug-cc-pVDZ-Singlet

1  1
  N   -1.883912   -0.989680   -0.027502
  N   -2.611192   -1.670276   -0.070812
  C   -0.846668   -0.068852   -0.195466
  C   -0.623580   1.359969   0.002304
  N   1.388568   0.182334   -0.189144
  C   0.729736   -0.781291   0.073118
  N   0.761700   1.559154   0.014788
  C   1.329964   -2.225277   0.118866
  H   0.742196   -2.609178   0.851919
  H   0.950714   -2.894950   -0.820338
  H   2.461716   -1.976181   -0.196259
  C   -1.593280   2.075287   -0.066472
  H   -2.230881   2.161632   -0.831593
  H   -2.443461   1.964506   0.979960
  H   -1.382417   3.321622   -0.111550
  C   2.777843   0.503220   -0.105962
  H   3.426316   0.050599   1.061525
  H   3.146059   -0.021864   -1.013404
  H   3.033072   1.462656   0.051321

nprocshared=7
