%chk=1,3,5-(CH3)3-Pyrazole-4-N2-UB3LYP-aug-cc-pVDZ-Duplet.chk
%mem=400MW
%nproc=7
#p Temperature=298.15 opt freq UB3LYP/aug-cc-pVDZ 

1,3,5-(CH3)3-Pyrazole-4-N2-UB3LYP-aug-cc-pVDZ-Duplet

0  2
  N   1.693085   1.405986   0.178317
  N   2.864021   1.040642   -0.029374
  C   0.536512   0.390942   -0.088055
  C   0.677484   -1.019092   0.086553
  N   -1.432506   -0.674757   0.173760
  C   -0.740247   0.539687   0.082148
  N   -0.450443   -1.429411   -0.113923
  C   -1.259238   2.185849   -0.040336
  H   -0.822838   2.899475   0.066859
  H   -2.166130   2.141033   -0.727515
  H   -1.969764   2.325781   0.933593
  C   2.077928   -1.920123   -0.086672
  H   2.683581   -1.606528   -0.901071
  H   2.680450   -1.513384   0.788022
  H   1.773493   -2.797653   -0.127543
  C   -2.845289   -0.920314   0.011471
  H   -3.408790   -0.408056   0.917324
  H   -3.248849   -0.439332   -0.813578
  H   -3.050434   -1.685363   0.066524

nprocshared=7
