%chk=1,3,5-(CH3)3-Pyrazole-4-N2+-UB3LYP-aug-cc-pVDZ-Singlet.chk
%mem=400MW
%nproc=7
#p Temperature=298.15 opt freq UB3LYP/aug-cc-pVDZ

1,3,5-(CH3)3-Pyrazole-4-N2+-UB3LYP-aug-cc-pVDZ-Singlet

1  1
  N   -1.733710   -1.024457   0.101910
  N   -2.621600   -1.803432   0.162015
  C   -0.491724   -0.424171   -0.049091
  C   -0.803610   1.234647   0.149200
  N   1.350304   0.335237   0.086383
  C   0.519717   -0.618762   -0.072642
  N   0.808046   1.541956   -0.186639
  C   1.257470   -2.143978   0.171189
  H   0.926376   -2.700987   0.879044
  H   0.890477   -2.692927   -0.839572
  H   2.145830   -2.258988   -0.052404
  C   -1.644451   2.232698   -0.191864
  H   -2.236842   2.064368   -0.773424
  H   -2.381345   2.014298   0.799413
  H   -1.361066   3.041061   -0.071906
  C   2.755791   0.477589   0.088998
  H   3.385707   -0.159389   0.862465
  H   3.396230   0.186140   -0.765778
  H   3.195684   1.517904   -0.010388

nprocshared=7
