%chk=1,3,5-(CH3)3-Pyrazole-4+-UB3LYP-aug-cc-pVDZ-Triplet.chk
%mem=400MW
%nproc=7
#p Temperature=298.15 opt freq UB3LYP/aug-cc-pVDZ

1,3,5-(CH3)3-Pyrazole-4+-UB3LYP-aug-cc-pVDZ-Triplet

1 3
C           0.03350         0.83070         0.00610
C          -0.77500        -0.16970        -0.52550
N          -2.10320         1.58010         0.09630
C          -0.77000         1.90120         0.38760
N          -2.10630         0.26720        -0.48250
C          -0.34990         3.21880         1.06520
H           0.12310         3.00380         2.00060
H           0.33450         3.74320         0.43160
H          -1.21540         3.82480         1.23410
C          -0.20450        -1.51090        -1.02280
H           0.49010        -1.33070        -1.81650
H           0.29550        -2.00650        -0.21700
H          -1.00260        -2.12740        -1.38030
C          -3.27820         2.42960         0.33860
H          -3.36440         2.62880         1.38630
H          -3.16670         3.35220        -0.19190
H          -4.15860         1.92620        -0.00240


nprocshared=7
