%chk=1,3,5-Triazine-2-N2-UB3LYP-aug-cc-pVDZ-Duplet.chk
%mem=400MW
%nproc=7
#p Temperature=298.15 opt freq UB3LYP/aug-cc-pVDZ 

1,3,5-Triazine-2-N2-UB3LYP-aug-cc-pVDZ-Duplet

0  2
  C   1.318237   1.189174   -0.033764
  C   -0.365052   -0.112877   -0.034193
  C   1.278234   -1.102672   0.109394
  H   2.069238   1.987887   0.062694
  N   -1.749777   -0.064165   0.091991
  N   -3.087002   0.121755   0.083572
  H   1.817062   -1.970578   0.106731
  N   2.256617   -0.185614   0.154044
  N   0.130316   1.025315   0.184190
  N   0.202321   -1.296740   0.076475

nprocshared=7
