%chk=1-CH3-C2H5+-UB3LYP-aug-cc-pVDZ-Singlet.chk
%mem=400MW
%nproc=7
#p Temperature=298.15 opt freq UB3LYP/aug-cc-pVDZ

1-CH3-C2H5+-UB3LYP-aug-cc-pVDZ-Singlet

1  1
  C   0.010700   -0.445115   -0.025417
  H   -0.023062   -1.438831   0.128768
  C   -1.474444   0.237692   -0.027924
  H   -1.688822   -0.312263   -0.835448
  H   -1.728658   -0.177106   0.741068
  H   -1.415493   1.415824   -0.057175
  C   1.377893   0.116064   0.080392
  H   1.743243   -0.275663   0.943939
  H   2.020262   -0.203635   -0.998416
  H   1.440092   1.107059   0.107269

nprocshared=7
