%chk=1-CH3-C2H5+-UB3LYP-aug-cc-pVDZ-Triplet.chk
%mem=400MW
%nproc=7
#p Temperature=298.15 opt freq UB3LYP/aug-cc-pVDZ

1-CH3-C2H5+-UB3LYP-aug-cc-pVDZ-Triplet

1  3
  C   -0.000627   0.269374   -0.243777
  H   -0.002597   1.500168   0.234028
  C   1.453797   -0.027310   0.117378
  H   2.213571   0.771612   -0.388973
  H   1.430390   -0.308070   1.009386
  H   1.517678   -0.934334   -0.579894
  C   -1.182606   -0.126268   0.174914
  H   -1.525550   -0.558389   1.064742
  H   -2.030268   0.559429   -0.195819
  H   -1.423539   -1.051068   -0.832902

nprocshared=7
