%chk=1-CH3-C2H5-UB3LYP-aug-cc-pVDZ-Duplet.chk
%mem=400MW
%nproc=7
#p Temperature=298.15 opt freq UB3LYP/aug-cc-pVDZ

1-CH3-C2H5-UB3LYP-aug-cc-pVDZ-Duplet

0 2
C          -0.09870        -0.14550         0.05600
H           0.25790         0.35890        -0.81760
C           0.41450         0.58040         1.31350
H           1.48450         0.57880         1.31450
H           0.05940         1.58980         1.31250
H           0.05630         0.07710         2.18710
C          -1.63870        -0.14550         0.05600
H          -1.99540         0.86330         0.05620
H          -1.99540        -0.64970        -0.81770
H          -1.99540        -0.65010         0.92960


nprocshared=7
