%mem=400MW
%nproc=7
#p Temperature=298.15 opt=(maxcycles=1024) SCF=(maxcycles=1024) freq UB3LYP/aug-cc-pVDZ

1H-1,2,3-Triazole-5-N2+-UB3LYP-aug-cc-pVDZ-Triplet

1  3
  N   1.557418   -0.151550   -0.143496
  N   2.718326   0.249852   0.136595
  C   0.356471   -0.025091   0.082564
  C   -0.565389   1.280838   -0.074943
  H   -0.392238   2.037781   -0.007669
  N   -0.338181   -1.248400   -0.088962
  H   -0.042220   -2.164961   0.120080
  N   -1.876892   -0.609174   0.083367
  N   -1.688814   0.734556   0.164638

nprocshared=7
