%mem=400MW
%nproc=7
#p Temperature=298.15 opt=(maxcycles=1024) SCF=(maxcycles=1024) freq UB3LYP/aug-cc-pVDZ

1H-1,2,4-Triazole-3-N2+-UB3LYP-aug-cc-pVDZ-Singlet

1 1
N           1.42610         0.76990         0.13610
N           2.55780         0.72140         0.24060
C           0.03350         0.83070         0.00610
C          -2.10630         0.26720        -0.48250
H          -2.92030        -0.34190        -0.81600
N          -2.10320         1.58010         0.09630
H          -2.90250         2.15800         0.26110
N          -0.77000         1.90120         0.38760
N          -0.77500        -0.16970        -0.52550


nprocshared=7
