%chk=4-CH3O-Ph-UB3LYP-aug-cc-pVDZ-Duplet.chk
%mem=400MW
%nproc=7
#p Temperature=298.15 opt freq UB3LYP/aug-cc-pVDZ 

4-CH3O-Ph-UB3LYP-aug-cc-pVDZ-Duplet

0  2
  C   -0.193704   1.142078   -0.340925
  C   -1.591454   1.180286   0.009182
  C   -2.290036   0.159720   0.298808
  C   -1.666968   -1.111481   -0.090950
  C   -0.220853   -1.287325   -0.166385
  C   0.404356   -0.172766   -0.164731
  H   0.229731   2.200727   -0.313755
  H   -2.139649   2.364209   0.386520
  H   -2.315073   -2.227670   0.325179
  H   0.214189   -2.199867   -0.115062
  O   1.813907   0.170149   -0.679754
  C   2.646774   0.077782   0.542484
  H   3.628014   -0.051941   0.012950
  H   2.572984   -0.741610   1.022275
  H   2.511570   1.046076   1.212817

nprocshared=7
