%chk=4-CH3O-Ph+-UB3LYP-aug-cc-pVDZ-Singlet.chk
%mem=400MW
%nproc=7
#p Temperature=298.15 opt freq UB3LYP/aug-cc-pVDZ

4-CH3O-Ph+-UB3LYP-aug-cc-pVDZ-Singlet

1  1
  C   -0.494163   1.061629   -0.085604
  C   -1.899846   1.343540   0.095596
  C   -1.923516   0.044424   0.378895
  C   -1.812917   -1.171565   0.265302
  C   -0.363323   -1.188432   -0.033194
  C   0.497514   -0.139989   -0.236340
  H   0.166696   2.167724   -0.224462
  H   -2.220312   2.336107   0.031468
  H   -2.230140   -2.354009   0.114881
  H   0.109586   -2.196278   -0.258549
  O   1.835666   -0.171543   -0.597893
  C   2.463217   0.004924   0.501564
  H   3.691621   -0.003502   -0.163091
  H   2.693957   -0.752429   1.273334
  H   2.529485   0.951307   1.169678

nprocshared=7
