%chk=4-CH3O-Ph-N2-UB3LYP-aug-cc-pVDZ-Duplet.chk
%mem=400MW
%nproc=7
#p Temperature=298.15 opt freq UB3LYP/aug-cc-pVDZ 

4-CH3O-Ph-N2-UB3LYP-aug-cc-pVDZ-Duplet

0  2
  C   0.733034   1.321518   -0.373207
  C   -0.691737   1.294066   -0.058521
  C   -1.345214   0.178341   -0.119131
  C   -0.633605   -1.052518   -0.239046
  C   0.466965   -1.186903   -0.376156
  C   1.186765   0.152002   -0.368083
  H   1.263962   1.953840   -0.456596
  H   -1.254094   2.362107   0.020822
  H   -1.198731   -2.318458   0.085979
  H   1.242144   -2.159295   -0.249673
  N   -2.826298   -0.150630   0.303410
  N   -3.917411   0.068359   0.186775
  O   2.513801   0.147598   -0.661732
  C   3.282743   -0.007407   0.709955
  H   4.366802   0.039237   0.365210
  H   3.066715   -0.732436   1.186506
  H   3.275555   0.913849   1.297311

nprocshared=7
