%chk=4-CH3O-Ph+-RB3LYP-aug-cc-pVDZ-Singlet.chk
%mem=400MW
%nproc=7
#p Temperature=298.15 opt freq RB3LYP/aug-cc-pVDZ

4-CH3O-Ph+-RB3LYP-aug-cc-pVDZ-Singlet

1  1
  C   -0.281623   1.055302   -0.203604
  C   -1.873412   1.428722   -0.068693
  C   -2.229921   -0.019917   0.054491
  C   -1.825409   -1.456358   -0.063957
  C   -0.495221   -1.337253   -0.124053
  C   0.395112   -0.139105   -0.122938
  H   0.296287   2.061319   -0.442641
  H   -2.352302   2.384744   0.362213
  H   -2.239423   -2.094405   0.018502
  H   0.257288   -2.186374   -0.339737
  O   1.577042   0.120362   -0.547138
  C   2.483233   0.132539   0.571400
  H   3.453837   0.006251   0.126638
  H   2.571379   -1.071935   1.063198
  H   2.658086   0.747483   1.140509

nprocshared=7
