%chk=C13H18N4-UB3LYP-aug-cc-pVDZ-Doublet.chk
%mem=400MW
%nproc=7
#p Temperature=298.15 opt freq UB3LYP/aug-cc-pVDZ

C13H18N4-UB3LYP-aug-cc-pVDZ-Doublet

0  3
  C   -3.817256   -0.760382   -0.945931
  C   -4.156116   0.386217   -0.367097
  N   -2.595673   -0.329294   0.695434
  C   -2.737696   -1.069094   -0.507910
  N   -3.540707   0.849599   0.586415
  C   -2.112158   -2.405965   -0.925570
  H   -2.416766   -3.365327   -0.622375
  H   -1.599285   -2.431781   -1.680181
  H   -1.214871   -2.634189   -0.338382
  C   -5.841870   1.113937   -0.451733
  H   -5.549133   1.356458   -1.959298
  H   -6.344165   0.419040   -0.429665
  H   -5.907640   2.234204   0.000330
  C   -1.123264   -0.099815   1.611487
  H   -1.221144   -1.198069   2.015652
  H   -0.993548   0.596832   2.048466
  C   0.272515   -0.188532   0.620598
  H   0.323705   -1.375043   0.155802
  H   -0.013573   -0.070224   -0.609791
  C   0.989134   0.722693   1.108088
  H   1.204012   0.150874   2.255827
  H   0.756073   1.386500   1.370556
  N   2.411328   0.459260   0.534360
  C   2.828693   1.430158   -0.593119
  C   4.320495   0.963700   -0.971832
  C   4.303387   -0.459174   -0.085105
  N   3.044234   -0.540435   0.508928
  C   1.969102   2.683198   -0.868927
  H   1.200577   2.383777   -1.366572
  H   1.766671   2.782726   0.065845
  H   2.907826   3.018374   -1.464820
  C   5.440947   -1.274730   -0.314917
  H   5.568468   -1.465149   -1.148124
  H   6.446906   -0.807807   -0.288866
  H   5.421936   -2.386949   0.285128

nprocshared=7
