%mem=400MW
%nproc=7
#p Temperature=298.15 opt freq RB3LYP/aug-cc-pVDZ

Continue/C13H18N8++-RB3LYP-aug-cc-pVDZ-Singlet

2  1
  N   5.729862   0.520095   -0.550995
  N   6.653400   1.012101   -0.989073
  C   4.444475   0.096117   -0.249792
  C   3.837123   -1.169432   -0.861657
  N   2.471174   -0.224619   0.659054
  C   3.471878   0.710373   0.639986
  N   2.712143   -1.255339   -0.236530
  C   3.573871   1.854276   1.426087
  H   4.434626   1.752331   2.172800
  H   4.011683   2.823646   0.774463
  H   2.707647   2.227311   1.815930
  C   4.483879   -2.168672   -1.822447
  H   4.596886   -1.766344   -2.698227
  H   5.326824   -2.625120   -1.436822
  H   3.626266   -2.988416   -1.767119
  C   1.292748   -0.242100   1.382995
  H   1.269150   0.681431   2.023283
  H   1.221716   -1.047971   1.980356
  C   0.013987   -0.095941   0.508497
  H   0.081233   0.780832   0.036184
  H   -0.036096   -0.873828   -0.277534
  C   -1.253658   -0.251775   1.325024
  H   -1.337611   0.612558   2.182823
  H   -1.390451   -1.216984   1.831859
  N   -2.453537   -0.025953   0.629803
  C   -3.616907   -0.841228   0.551419
  C   -4.528406   0.046026   -0.318143
  C   -3.858847   1.164852   -0.601543
  N   -2.595298   1.148750   -0.071456
  C   -3.705346   -2.011406   1.164621
  H   -2.876544   -2.757939   0.767724
  H   -3.668258   -2.038425   2.186208
  H   -4.681430   -2.477432   0.798080
  C   -4.283724   2.327347   -1.476761
  H   -4.572117   2.040070   -2.542262
  H   -5.339754   2.727969   -0.948679
  H   -3.610238   3.097437   -1.486745
  N   -5.592425   -0.418295   -0.632591
  N   -6.806726   -0.585822   -1.020438

nprocshared=7
