%chk=N-O-Pyridine-3-N2-UB3LYP-aug-cc-pVDZ-Duplet.chk
%mem=400MW
%nproc=7
#p Temperature=298.15 opt freq UB3LYP/aug-cc-pVDZ 

N-O-Pyridine-3-N2-UB3LYP-aug-cc-pVDZ-Duplet

0  2
  C   0.100320   -1.078501   -0.176243
  C   -0.744330   -0.110576   -0.062288
  C   -0.716111   1.313875   -0.065160
  C   0.977052   1.886928   0.079922
  H   -0.067070   -1.927010   0.039639
  N   -2.213478   -0.491568   0.085226
  N   -3.216030   -0.677606   0.002066
  H   0.947834   2.921290   -0.149483
  H   -1.220325   2.317726   -0.168958
  N   1.424141   -0.395818   0.122920
  C   1.637290   0.767060   -0.153430
  H   2.727745   1.075913   0.046429
  O   2.270610   -1.390547   -0.000750

nprocshared=7
