%chk=Ph-N2+-UB3LYP-aug-cc-pVDZ-Triplet.chk
%mem=400MW
%nproc=7
#p Temperature=298.15 opt freq UB3LYP/aug-cc-pVDZ

Ph-N2+-UB3LYP-aug-cc-pVDZ-Triplet

1  3
  C   -1.336965   1.252197   0.114261
  C   0.065791   1.148574   -0.135012
  C   0.548814   -0.130688   -0.226052
  C   -0.067409   -1.235172   -0.067490
  C   -1.404898   -1.266152   -0.017448
  C   -2.310014   -0.023545   0.007088
  H   -2.092206   2.035646   0.186614
  H   0.496748   2.313907   0.057015
  N   1.842266   0.005788   -0.540016
  N   3.048370   -0.056848   0.273746
  H   -3.244273   0.027803   0.092514
  H   -2.127498   -2.220928   0.116970
  H   0.450124   -2.136990   0.078312

nprocshared=7
