%chk=Pyrazole-4+-RB3LYP-aug-cc-pVDZ-Singlet.chk
%mem=400MW
%nproc=7
#p Temperature=298.15 opt freq RB3LYP/aug-cc-pVDZ

Pyrazole-4+-RB3LYP-aug-cc-pVDZ-Singlet

1 1
C           0.03350         0.83070         0.00610
C          -0.77500        -0.16970        -0.52550
H          -0.37860        -1.10160        -0.87100
N          -2.10320         1.58010         0.09630
H          -2.90250         2.15800         0.26110
C          -0.77000         1.90120         0.38760
H          -0.47810         2.81670         0.85840
N          -2.10630         0.26720        -0.48250


nprocshared=7
