%mem=400MW
%nproc=7
#p Temperature=298.15 opt freq UB3LYP/aug-cc-pVDZ

Continue/Pyrimidine-4-N2-UB3LYP-aug-cc-pVDZ-Doublet

0  2
  C   -1.526639   -1.113796   0.067613
  C   0.300663   0.067799   0.158427
  C   -0.223269   1.246970   -0.127563
  C   -1.559595   1.003654   -0.115637
  H   -2.002603   -2.187907   -0.090286
  N   2.087341   0.033130   0.061917
  N   3.268648   -0.103991   0.035815
  H   -2.148046   2.076260   0.087021
  H   0.311892   2.189264   0.250040
  N   -2.249061   -0.148178   -0.042574
  N   -0.194197   -1.277385   0.030156

nprocshared=7
