%chk=Pyrimidine-2-N2-UB3LYP-aug-cc-pVDZ-Duplet.chk
%mem=400MW
%nproc=7
#p Temperature=298.15 opt freq UB3LYP/aug-cc-pVDZ 

Pyrimidine-2-N2-UB3LYP-aug-cc-pVDZ-Duplet

0  2
  C   -0.367891   0.100171   -0.017379
  N   -2.062164   0.019309   0.120938
  N   -3.200010   -0.091301   0.110581
  C   1.959050   0.038198   0.175696
  H   3.310805   -0.033738   0.199550
  C   1.434901   -1.083598   -0.194474
  H   2.049356   -2.120141   0.106752
  N   0.051685   -1.248361   -0.114916
  C   1.216488   1.044484   0.053582
  H   2.069081   2.287733   -0.093104
  N   0.138562   1.129214   -0.022184

nprocshared=7
