%chk=Pyridine-2-N2-UB3LYP-aug-cc-pVDZ-Duplet.chk
%mem=400MW
%nproc=7
#p Temperature=298.15 opt freq UB3LYP/aug-cc-pVDZ 

Pyridine-2-N2-UB3LYP-aug-cc-pVDZ-Duplet

0  2
  C   -0.696073   0.128310   0.177069
  C   0.028868   1.303861   -0.085854
  C   1.679912   1.383577   0.005461
  N   -1.897126   0.018068   0.066686
  N   -3.248259   0.037360   0.163726
  H   2.234758   2.128646   0.155590
  H   -0.548824   2.288415   -0.189884
  C   2.348024   -0.243943   0.162002
  H   3.079118   -0.324258   0.188792
  C   1.522649   -1.324719   -0.154111
  H   1.939049   -2.124459   0.073117
  N   0.205032   -1.036732   0.134104

nprocshared=7
