%chk=Tetrazole-5-N2+-UB3LYP-aug-cc-pVDZ-Triplet.chk
%mem=400MW
%nproc=7
#p Temperature=298.15 opt freq UB3LYP/aug-cc-pVDZ

Tetrazole-5-N2+-UB3LYP-aug-cc-pVDZ-Triplet

1  3
N          -1.65003         0.47186        -0.12049
N          -2.53172        -0.32084         0.12235
N           0.69057         1.05382         0.02066
N           1.84363         0.48322         0.04664
N           0.29109        -1.13055        -0.04563
N           1.54257        -0.95416         0.00637
C          -0.31841         0.11643        -0.04069
H           0.60770         2.07795         0.03489


nprocshared=7
