%chk=Tetrazole-5-N2+-UB3LYP-aug-cc-pVDZ-Singlet.chk
%mem=400MW
%nproc=7
#p Temperature=298.15 opt freq UB3LYP/aug-cc-pVDZ

Tetrazole-5-N2+-UB3LYP-aug-cc-pVDZ-Singlet

1 1
N           1.42610         0.76990         0.13610
N           2.55780         0.72140         0.24060
N          -0.77000         1.90120         0.38760
N          -2.10320         1.58010         0.09630
N          -0.77500        -0.16970        -0.52550
N          -2.10630         0.26720        -0.48250
C           0.03350         0.83070         0.00610
H          -0.45060         2.75460         0.79960


nprocshared=7
