! B3LYP/G aug-cc-pVDZ TightSCF TightOpt
%scf MaxIter 1000 end
%geom Scan B 2 0 = 0.9,16.9,800 end MaxIter 1000 end
* xyz 1 1
  N   0.42709049402407     -1.33389600028307      0.05599770622790
  N   0.63260147896238     -2.46750176117064      0.05606136755812
  N   0.26616781318024     -0.44839959137478      0.05598788021872
  H   0.15319698369903      0.16672244895796      0.90762692920401
  H   0.15474323013429      0.16697490387053     -0.79567388320873

*
%pal nprocs 35 end
